<number of tasks>
70

<cycle time>
364

<task times>
1 17
2 66
3 54
4 52
5 6
6 88
7 21
8 128
9 68
10 70
11 85
12 21
13 134
14 135
15 94
16 90
17 50
18 143
19 19
20 54
21 50
22 40
23 73
24 12
25 152
26 42
27 45
28 74
29 26
30 11
31 31
32 50
33 102
34 46
35 35
36 40
37 2
38 1
39 3
40 13
41 16
42 25
43 21
44 43
45 30
46 83
47 89
48 56
49 59
50 43
51 11
52 26
53 44
54 121
55 38
56 68
57 22
58 7
59 16
60 32
61 25
62 27
63 156
64 28
65 15
66 26
67 18
68 72
69 23
70 27

<precedence relations>
1,2
1,41
1,69
1,70
2,3
3,4
3,68
4,6
4,7
5,6
5,24
5,30
6,8
7,8
8,12
9,10
10,11
11,12
12,13
12,14
13,23
14,23
15,16
16,17
16,18
17,19
18,19
19,20
19,22
19,57
20,21
21,23
22,23
23,25
23,31
23,33
24,25
25,26
25,27
25,28
25,29
26,35
27,35
28,35
29,35
30,31
31,32
32,35
33,34
34,35
35,36
35,44
35,48
35,51
35,53
35,56
35,60
35,61
35,62
36,37
37,38
38,39
39,40
40,42
41,42
42,43
43,50
44,45
45,46
46,47
47,50
48,49
49,50
51,52
52,54
53,54
54,55
57,58
58,59
59,60
61,65
62,63
63,64
64,65
64,66
64,67

<setup times forward>
1,10:4
1,11:4
1,16:4
1,17:2
1,18:2
1,19:2
1,20:1
1,21:1
1,22:1
1,24:1
1,30:1
1,41:1
1,57:5
1,58:5
1,59:5
1,69:2
1,70:2
2,10:4
2,11:4
2,16:4
2,17:2
2,18:2
2,19:2
2,20:1
2,21:1
2,22:1
2,24:1
2,30:1
2,41:1
2,57:5
2,58:5
2,59:5
2,69:2
2,70:2
3,10:4
3,11:4
3,16:4
3,17:2
3,18:2
3,19:2
3,20:1
3,21:1
3,22:1
3,24:1
3,30:1
3,41:1
3,57:5
3,58:5
3,59:5
3,68:5
3,69:2
3,70:2
4,6:4
4,7:4
4,10:4
4,11:4
4,16:4
4,17:2
4,18:2
4,19:2
4,20:1
4,21:1
4,22:1
4,24:1
4,30:1
4,41:1
4,57:5
4,58:5
4,59:5
4,68:5
4,69:2
4,70:2
5,6:4
5,7:4
5,10:4
5,11:4
5,16:4
5,17:2
5,18:2
5,19:2
5,20:1
5,21:1
5,22:1
5,24:1
5,30:1
5,41:1
5,57:5
5,58:5
5,59:5
5,68:5
5,69:2
5,70:2
6,8:6
6,9:4
6,15:4
6,17:6
6,18:6
6,19:6
6,20:3
6,21:3
6,22:3
6,24:3
6,30:3
6,41:5
6,57:9
6,58:9
6,59:9
6,68:9
6,69:2
6,70:2
7,5:4
7,8:6
7,9:4
7,15:4
7,17:6
7,18:6
7,19:6
7,20:3
7,21:3
7,22:3
7,24:3
7,30:3
7,41:5
7,57:9
7,58:9
7,59:9
7,68:9
7,69:2
7,70:2
8,9:2
8,10:6
8,11:6
8,15:2
8,16:6
8,20:3
8,21:3
8,22:3
8,24:3
8,30:3
8,41:1
8,57:3
8,58:3
8,59:3
8,68:3
8,69:4
8,70:4
9,6:4
9,7:4
9,8:2
9,10:4
9,16:4
9,17:2
9,18:2
9,19:2
9,20:1
9,21:1
9,22:1
9,24:1
9,30:1
9,41:1
9,57:5
9,58:5
9,59:5
9,68:5
9,69:2
9,70:2
10,1:4
10,2:4
10,3:4
10,4:4
10,5:4
10,8:6
10,15:4
10,17:6
10,18:6
10,19:6
10,20:3
10,21:3
10,22:3
10,24:3
10,30:3
10,41:5
10,57:9
10,58:9
10,59:9
10,68:9
10,69:2
10,70:2
11,1:4
11,2:4
11,3:4
11,4:4
11,5:4
11,8:6
11,12:6
11,15:4
11,17:6
11,18:6
11,19:6
11,20:3
11,21:3
11,22:3
11,24:3
11,30:3
11,41:5
11,57:9
11,58:9
11,59:9
11,68:9
11,69:2
11,70:2
12,13:3
12,14:3
12,15:2
12,16:6
12,20:3
12,21:3
12,22:3
12,24:3
12,30:3
12,41:1
12,57:3
12,58:3
12,59:3
12,68:3
12,69:4
12,70:4
13,15:1
13,16:3
13,17:3
13,18:3
13,19:3
13,41:2
13,57:6
13,58:6
13,59:6
13,68:6
13,69:1
13,70:1
14,15:1
14,16:3
14,17:3
14,18:3
14,19:3
14,41:2
14,57:6
14,58:6
14,59:6
14,68:6
14,69:1
14,70:1
15,6:4
15,7:4
15,8:2
15,10:4
15,11:4
15,12:2
15,13:1
15,14:1
15,16:4
15,24:1
15,30:1
15,41:1
15,68:5
15,69:2
15,70:2
16,1:4
16,2:4
16,3:4
16,4:4
16,5:4
16,8:6
16,9:4
16,12:6
16,13:3
16,14:3
16,17:6
16,18:6
16,24:3
16,30:3
16,41:5
16,68:9
16,69:2
16,70:2
17,1:2
17,2:2
17,3:2
17,4:2
17,5:2
17,6:6
17,7:6
17,9:2
17,10:6
17,11:6
17,13:3
17,14:3
17,24:3
17,30:3
17,41:1
17,68:3
17,69:4
17,70:4
18,1:2
18,2:2
18,3:2
18,4:2
18,5:2
18,6:6
18,7:6
18,9:2
18,10:6
18,11:6
18,13:3
18,14:3
18,24:3
18,30:3
18,41:1
18,68:3
18,69:4
18,70:4
19,1:2
19,2:2
19,3:2
19,4:2
19,5:2
19,6:6
19,7:6
19,9:2
19,10:6
19,11:6
19,13:3
19,14:3
19,20:3
19,22:3
19,24:3
19,30:3
19,41:1
19,57:3
19,68:3
19,69:4
19,70:4
20,1:1
20,2:1
20,3:1
20,4:1
20,5:1
20,6:3
20,7:3
20,8:3
20,9:1
20,10:3
20,11:3
20,12:3
20,41:2
20,57:6
20,58:6
20,59:6
20,68:6
20,69:1
20,70:1
21,1:1
21,2:1
21,3:1
21,4:1
21,5:1
21,6:3
21,7:3
21,8:3
21,9:1
21,10:3
21,11:3
21,12:3
21,41:2
21,57:6
21,58:6
21,59:6
21,68:6
21,69:1
21,70:1
22,1:1
22,2:1
22,3:1
22,4:1
22,5:1
22,6:3
22,7:3
22,8:3
22,9:1
22,10:3
22,11:3
22,12:3
22,41:2
22,57:6
22,58:6
22,59:6
22,68:6
22,69:1
22,70:1
23,33:4
23,41:2
23,57:6
23,58:6
23,59:6
23,68:6
23,69:1
23,70:1
24,1:1
24,2:1
24,3:1
24,4:1
24,6:3
24,7:3
24,8:3
24,9:1
24,10:3
24,11:3
24,12:3
24,15:1
24,16:3
24,17:3
24,18:3
24,19:3
24,32:4
24,33:4
24,34:4
24,41:2
24,57:6
24,58:6
24,59:6
24,68:6
24,69:1
24,70:1
25,26:4
25,27:4
25,28:4
25,32:4
25,33:4
25,34:4
25,41:2
25,57:6
25,58:6
25,59:6
25,68:6
25,69:1
25,70:1
26,29:4
26,30:4
26,31:4
26,35:2
26,41:2
26,57:2
26,58:2
26,59:2
26,68:2
26,69:5
26,70:5
27,29:4
27,30:4
27,31:4
27,35:2
27,41:2
27,57:2
27,58:2
27,59:2
27,68:2
27,69:5
27,70:5
28,29:4
28,30:4
28,31:4
28,35:2
28,41:2
28,57:2
28,58:2
28,59:2
28,68:2
28,69:5
28,70:5
29,26:4
29,27:4
29,28:4
29,32:4
29,33:4
29,34:4
29,35:2
29,41:2
29,57:6
29,58:6
29,59:6
29,68:6
29,69:1
29,70:1
30,1:1
30,2:1
30,3:1
30,4:1
30,6:3
30,7:3
30,8:3
30,9:1
30,10:3
30,11:3
30,12:3
30,15:1
30,16:3
30,17:3
30,18:3
30,19:3
30,26:4
30,27:4
30,28:4
30,33:4
30,34:4
30,41:2
30,57:6
30,58:6
30,59:6
30,68:6
30,69:1
30,70:1
31,26:4
31,27:4
31,28:4
31,32:4
31,33:4
31,34:4
31,41:2
31,57:6
31,58:6
31,59:6
31,68:6
31,69:1
31,70:1
32,24:4
32,25:4
32,29:4
32,35:2
32,41:2
32,57:2
32,58:2
32,59:2
32,68:2
32,69:5
32,70:5
33,24:4
33,25:4
33,29:4
33,30:4
33,31:4
33,41:2
33,57:2
33,58:2
33,59:2
33,68:2
33,69:5
33,70:5
34,24:4
34,25:4
34,29:4
34,30:4
34,31:4
34,35:2
34,41:2
34,57:2
34,58:2
34,59:2
34,68:2
34,69:5
34,70:5
35,36:4
35,48:3
35,56:4
35,57:4
35,58:4
35,59:4
35,60:3
35,61:3
35,68:4
35,69:3
35,70:3
36,41:4
36,44:4
36,45:4
36,47:3
36,48:7
36,49:3
36,51:4
36,52:7
36,53:4
36,54:3
36,55:3
36,60:7
36,61:7
36,62:4
36,63:4
36,65:7
36,66:7
36,67:7
36,69:7
36,70:7
37,41:4
37,44:4
37,45:4
37,47:3
37,48:7
37,49:3
37,51:4
37,52:7
37,53:4
37,54:3
37,55:3
37,60:7
37,61:7
37,62:4
37,63:4
37,65:7
37,66:7
37,67:7
37,69:7
37,70:7
38,41:4
38,44:4
38,45:4
38,47:3
38,48:7
38,49:3
38,51:4
38,52:7
38,53:4
38,54:3
38,55:3
38,60:7
38,61:7
38,62:4
38,63:4
38,65:7
38,66:7
38,67:7
38,69:7
38,70:7
39,41:4
39,44:4
39,45:4
39,47:3
39,48:7
39,49:3
39,51:4
39,52:7
39,53:4
39,54:3
39,55:3
39,60:7
39,61:7
39,62:4
39,63:4
39,65:7
39,66:7
39,67:7
39,69:7
39,70:7
40,41:4
40,42:7
40,44:4
40,45:4
40,47:3
40,48:7
40,49:3
40,51:4
40,52:7
40,53:4
40,54:3
40,55:3
40,60:7
40,61:7
40,62:4
40,63:4
40,65:7
40,66:7
40,67:7
40,69:7
40,70:7
41,2:1
41,3:1
41,4:1
41,5:1
41,6:5
41,7:5
41,8:1
41,9:1
41,10:5
41,11:5
41,12:1
41,13:2
41,14:2
41,15:1
41,16:5
41,17:1
41,18:1
41,19:1
41,20:2
41,21:2
41,22:2
41,23:2
41,24:2
41,25:2
41,26:2
41,27:2
41,28:2
41,29:2
41,30:2
41,31:2
41,32:2
41,33:2
41,34:2
41,36:4
41,37:4
41,38:4
41,39:4
41,40:4
41,42:3
41,46:4
41,47:1
41,48:3
41,49:1
41,52:3
41,54:1
41,55:1
41,56:4
41,57:4
41,58:4
41,59:4
41,60:3
41,61:3
41,64:4
41,65:3
41,66:3
41,67:3
41,68:4
41,69:3
41,70:3
42,44:3
42,45:3
42,46:7
42,47:4
42,49:4
42,51:3
42,53:3
42,54:4
42,55:4
42,56:7
42,57:7
42,58:7
42,59:7
42,62:3
42,63:3
42,64:7
42,68:7
43,44:3
43,45:3
43,46:7
43,47:4
43,49:4
43,50:4
43,51:3
43,53:3
43,54:4
43,55:4
43,56:7
43,57:7
43,58:7
43,59:7
43,62:3
43,63:3
43,64:7
43,68:7
44,36:4
44,37:4
44,38:4
44,39:4
44,40:4
44,42:3
44,43:3
44,48:3
44,49:1
44,52:3
44,54:1
44,55:1
44,56:4
44,57:4
44,58:4
44,59:4
44,60:3
44,61:3
44,64:4
44,65:3
44,66:3
44,67:3
44,68:4
44,69:3
44,70:3
45,36:4
45,37:4
45,38:4
45,39:4
45,40:4
45,42:3
45,43:3
45,46:4
45,48:3
45,49:1
45,52:3
45,54:1
45,55:1
45,56:4
45,57:4
45,58:4
45,59:4
45,60:3
45,61:3
45,64:4
45,65:3
45,66:3
45,67:3
45,68:4
45,69:3
45,70:3
46,41:4
46,42:7
46,43:7
46,47:3
46,48:7
46,49:3
46,51:4
46,52:7
46,53:4
46,54:3
46,55:3
46,60:7
46,61:7
46,62:4
46,63:4
46,65:7
46,66:7
46,67:7
46,69:7
46,70:7
47,36:3
47,37:3
47,38:3
47,39:3
47,40:3
47,41:1
47,42:4
47,43:4
47,48:4
47,51:1
47,52:4
47,53:1
47,56:3
47,57:3
47,58:3
47,59:3
47,60:4
47,61:4
47,62:1
47,63:1
47,64:3
47,65:4
47,66:4
47,67:4
47,68:3
47,69:4
47,70:4
48,36:7
48,37:7
48,38:7
48,39:7
48,40:7
48,41:3
48,44:3
48,45:3
48,46:7
48,47:4
48,49:4
48,51:3
48,53:3
48,54:4
48,55:4
48,56:7
48,57:7
48,58:7
48,59:7
48,62:3
48,63:3
48,64:7
48,68:7
49,36:3
49,37:3
49,38:3
49,39:3
49,40:3
49,41:1
49,42:4
49,43:4
49,44:1
49,45:1
49,46:3
49,51:1
49,52:4
49,53:1
49,56:3
49,57:3
49,58:3
49,59:3
49,60:4
49,61:4
49,62:1
49,63:1
49,64:3
49,65:4
49,66:4
49,67:4
49,68:3
49,69:4
49,70:4
50,51:1
50,52:4
50,53:1
50,56:3
50,57:3
50,58:3
50,59:3
50,60:4
50,61:4
50,62:1
50,63:1
50,64:3
50,65:4
50,66:4
50,67:4
50,68:3
50,69:4
50,70:4
51,36:4
51,37:4
51,38:4
51,39:4
51,40:4
51,42:3
51,43:3
51,46:4
51,47:1
51,48:3
51,49:1
51,50:1
51,52:3
51,56:4
51,57:4
51,58:4
51,59:4
51,60:3
51,61:3
51,64:4
51,65:3
51,66:3
51,67:3
51,68:4
51,69:3
51,70:3
52,36:7
52,37:7
52,38:7
52,39:7
52,40:7
52,41:3
52,44:3
52,45:3
52,46:7
52,47:4
52,49:4
52,50:4
52,53:3
52,54:4
52,56:7
52,57:7
52,58:7
52,59:7
52,62:3
52,63:3
52,64:7
52,68:7
53,36:4
53,37:4
53,38:4
53,39:4
53,40:4
53,42:3
53,43:3
53,46:4
53,47:1
53,48:3
53,49:1
53,50:1
53,52:3
53,54:1
53,56:4
53,57:4
53,58:4
53,59:4
53,60:3
53,61:3
53,64:4
53,65:3
53,66:3
53,67:3
53,68:4
53,69:3
53,70:3
54,36:3
54,37:3
54,38:3
54,39:3
54,40:3
54,41:1
54,42:4
54,43:4
54,44:1
54,45:1
54,46:3
54,48:4
54,56:3
54,57:3
54,58:3
54,59:3
54,60:4
54,61:4
54,62:1
54,63:1
54,64:3
54,65:4
54,66:4
54,67:4
54,68:3
54,69:4
54,70:4
55,36:3
55,37:3
55,38:3
55,39:3
55,40:3
55,41:1
55,42:4
55,43:4
55,44:1
55,45:1
55,46:3
55,48:4
55,56:3
55,57:3
55,58:3
55,59:3
55,60:4
55,61:4
55,62:1
55,63:1
55,64:3
55,65:4
55,66:4
55,67:4
55,68:3
55,69:4
55,70:4
56,41:4
56,42:7
56,43:7
56,44:4
56,45:4
56,47:3
56,48:7
56,49:3
56,50:3
56,51:4
56,52:7
56,53:4
56,54:3
56,55:3
56,60:7
56,61:7
56,62:4
56,63:4
56,65:7
56,66:7
56,67:7
56,69:7
56,70:7
57,1:5
57,2:5
57,3:5
57,4:5
57,5:5
57,6:9
57,7:9
57,8:3
57,9:5
57,10:9
57,11:9
57,12:3
57,13:6
57,14:6
57,20:6
57,21:6
57,22:6
57,23:6
57,24:6
57,25:6
57,26:2
57,27:2
57,28:2
57,29:6
57,30:6
57,31:6
57,32:2
57,33:2
57,34:2
57,35:4
57,41:4
57,42:7
57,43:7
57,44:4
57,45:4
57,47:3
57,48:7
57,49:3
57,50:3
57,51:4
57,52:7
57,53:4
57,54:3
57,55:3
57,61:7
57,62:4
57,63:4
57,65:7
57,66:7
57,67:7
57,69:7
57,70:7
58,1:5
58,2:5
58,3:5
58,4:5
58,5:5
58,6:9
58,7:9
58,8:3
58,9:5
58,10:9
58,11:9
58,12:3
58,13:6
58,14:6
58,20:6
58,21:6
58,22:6
58,23:6
58,24:6
58,25:6
58,26:2
58,27:2
58,28:2
58,29:6
58,30:6
58,31:6
58,32:2
58,33:2
58,34:2
58,35:4
58,41:4
58,42:7
58,43:7
58,44:4
58,45:4
58,47:3
58,48:7
58,49:3
58,50:3
58,51:4
58,52:7
58,53:4
58,54:3
58,55:3
58,61:7
58,62:4
58,63:4
58,65:7
58,66:7
58,67:7
58,69:7
58,70:7
59,1:5
59,2:5
59,3:5
59,4:5
59,5:5
59,6:9
59,7:9
59,8:3
59,9:5
59,10:9
59,11:9
59,12:3
59,13:6
59,14:6
59,20:6
59,21:6
59,22:6
59,23:6
59,24:6
59,25:6
59,26:2
59,27:2
59,28:2
59,29:6
59,30:6
59,31:6
59,32:2
59,33:2
59,34:2
59,35:4
59,41:4
59,42:7
59,43:7
59,44:4
59,45:4
59,47:3
59,48:7
59,49:3
59,50:3
59,51:4
59,52:7
59,53:4
59,54:3
59,55:3
59,60:7
59,61:7
59,62:4
59,63:4
59,65:7
59,66:7
59,67:7
59,69:7
59,70:7
60,36:7
60,37:7
60,38:7
60,39:7
60,40:7
60,41:3
60,44:3
60,45:3
60,46:7
60,47:4
60,49:4
60,50:4
60,51:3
60,53:3
60,54:4
60,55:4
60,56:7
60,62:3
60,63:3
60,64:7
60,68:7
61,36:7
61,37:7
61,38:7
61,39:7
61,40:7
61,41:3
61,44:3
61,45:3
61,46:7
61,47:4
61,49:4
61,50:4
61,51:3
61,53:3
61,54:4
61,55:4
61,56:7
61,57:7
61,58:7
61,59:7
61,62:3
61,63:3
61,64:7
61,68:7
62,36:4
62,37:4
62,38:4
62,39:4
62,40:4
62,42:3
62,43:3
62,46:4
62,47:1
62,48:3
62,49:1
62,50:1
62,52:3
62,54:1
62,55:1
62,56:4
62,57:4
62,58:4
62,59:4
62,60:3
62,61:3
62,68:4
62,69:3
62,70:3
63,36:4
63,37:4
63,38:4
63,39:4
63,40:4
63,42:3
63,43:3
63,46:4
63,47:1
63,48:3
63,49:1
63,50:1
63,52:3
63,54:1
63,55:1
63,56:4
63,57:4
63,58:4
63,59:4
63,60:3
63,61:3
63,64:4
63,68:4
63,69:3
63,70:3
64,41:4
64,42:7
64,43:7
64,44:4
64,45:4
64,47:3
64,48:7
64,49:3
64,50:3
64,51:4
64,52:7
64,53:4
64,54:3
64,55:3
64,60:7
64,61:7
64,65:7
64,66:7
64,67:7
64,69:7
64,70:7
65,36:7
65,37:7
65,38:7
65,39:7
65,40:7
65,41:3
65,44:3
65,45:3
65,46:7
65,47:4
65,49:4
65,50:4
65,51:3
65,53:3
65,54:4
65,55:4
65,56:7
65,57:7
65,58:7
65,59:7
65,68:7
66,36:7
66,37:7
66,38:7
66,39:7
66,40:7
66,41:3
66,44:3
66,45:3
66,46:7
66,47:4
66,49:4
66,50:4
66,51:3
66,53:3
66,54:4
66,55:4
66,56:7
66,57:7
66,58:7
66,59:7
66,68:7
67,36:7
67,37:7
67,38:7
67,39:7
67,40:7
67,41:3
67,44:3
67,45:3
67,46:7
67,47:4
67,49:4
67,50:4
67,51:3
67,53:3
67,54:4
67,55:4
67,56:7
67,57:7
67,58:7
67,59:7
67,68:7
68,4:5
68,5:5
68,6:9
68,7:9
68,8:3
68,9:5
68,10:9
68,11:9
68,12:3
68,13:6
68,14:6
68,15:5
68,16:9
68,17:3
68,18:3
68,19:3
68,20:6
68,21:6
68,22:6
68,23:6
68,24:6
68,25:6
68,26:2
68,27:2
68,28:2
68,29:6
68,30:6
68,31:6
68,32:2
68,33:2
68,34:2
68,35:4
68,41:4
68,42:7
68,43:7
68,44:4
68,45:4
68,47:3
68,48:7
68,49:3
68,50:3
68,51:4
68,52:7
68,53:4
68,54:3
68,55:3
68,60:7
68,61:7
68,62:4
68,63:4
68,65:7
68,66:7
68,67:7
68,69:7
68,70:7
69,2:2
69,3:2
69,4:2
69,5:2
69,6:2
69,7:2
69,8:4
69,9:2
69,10:2
69,11:2
69,12:4
69,13:1
69,14:1
69,15:2
69,16:2
69,17:4
69,18:4
69,19:4
69,20:1
69,21:1
69,22:1
69,23:1
69,24:1
69,25:1
69,26:5
69,27:5
69,28:5
69,29:1
69,30:1
69,31:1
69,32:5
69,33:5
69,34:5
69,35:3
69,36:7
69,37:7
69,38:7
69,39:7
69,40:7
69,41:3
69,44:3
69,45:3
69,46:7
69,47:4
69,49:4
69,50:4
69,51:3
69,53:3
69,54:4
69,55:4
69,56:7
69,57:7
69,58:7
69,59:7
69,62:3
69,63:3
69,64:7
69,68:7
70,2:2
70,3:2
70,4:2
70,5:2
70,6:2
70,7:2
70,8:4
70,9:2
70,10:2
70,11:2
70,12:4
70,13:1
70,14:1
70,15:2
70,16:2
70,17:4
70,18:4
70,19:4
70,20:1
70,21:1
70,22:1
70,23:1
70,24:1
70,25:1
70,26:5
70,27:5
70,28:5
70,29:1
70,30:1
70,31:1
70,32:5
70,33:5
70,34:5
70,35:3
70,36:7
70,37:7
70,38:7
70,39:7
70,40:7
70,41:3
70,44:3
70,45:3
70,46:7
70,47:4
70,49:4
70,50:4
70,51:3
70,53:3
70,54:4
70,55:4
70,56:7
70,57:7
70,58:7
70,59:7
70,62:3
70,63:3
70,64:7
70,68:7

<setup times backward>
1,1:1
1,5:1
1,9:1
1,15:1
1,17:3
1,18:3
1,19:3
1,57:6
1,58:6
1,59:6
2,1:1
2,2:1
2,5:1
2,9:1
2,15:1
2,17:3
2,18:3
2,19:3
2,41:2
2,57:6
2,58:6
2,59:6
3,1:1
3,2:1
3,3:1
3,5:1
3,9:1
3,15:1
3,17:3
3,18:3
3,19:3
3,41:2
3,57:6
3,58:6
3,59:6
4,1:1
4,2:1
4,3:1
4,4:1
4,5:1
4,9:1
4,15:1
4,17:3
4,18:3
4,19:3
4,41:2
4,57:6
4,58:6
4,59:6
4,68:6
5,1:1
5,2:1
5,3:1
5,4:1
5,5:1
5,9:1
5,15:1
5,17:3
5,18:3
5,19:3
5,41:2
5,57:6
5,58:6
5,59:6
5,68:6
6,1:5
6,2:5
6,3:5
6,4:5
6,5:5
6,6:1
6,7:1
6,9:5
6,10:1
6,11:1
6,15:5
6,16:1
6,17:7
6,18:7
6,19:7
6,20:4
6,21:4
6,22:4
6,24:4
6,30:4
6,41:6
6,57:10
6,58:10
6,59:10
6,68:10
6,69:3
6,70:3
7,1:5
7,2:5
7,3:5
7,4:5
7,5:5
7,6:1
7,7:1
7,9:5
7,10:1
7,11:1
7,15:5
7,16:1
7,17:7
7,18:7
7,19:7
7,20:4
7,21:4
7,22:4
7,24:4
7,30:4
7,41:6
7,57:10
7,58:10
7,59:10
7,68:10
7,69:3
7,70:3
8,8:1
8,17:1
8,18:1
8,19:1
8,57:4
8,58:4
8,59:4
8,68:4
9,1:1
9,2:1
9,3:1
9,4:1
9,5:1
9,8:3
9,9:1
9,15:1
9,17:3
9,18:3
9,19:3
9,41:2
9,57:6
9,58:6
9,59:6
9,68:6
10,1:5
10,2:5
10,3:5
10,4:5
10,5:5
10,6:1
10,7:1
10,8:7
10,9:5
10,10:1
10,15:5
10,16:1
10,17:7
10,18:7
10,19:7
10,20:4
10,21:4
10,22:4
10,24:4
10,30:4
10,41:6
10,57:10
10,58:10
10,59:10
10,68:10
10,69:3
10,70:3
11,1:5
11,2:5
11,3:5
11,4:5
11,5:5
11,6:1
11,7:1
11,8:7
11,9:5
11,10:1
11,11:1
11,15:5
11,16:1
11,17:7
11,18:7
11,19:7
11,20:4
11,21:4
11,22:4
11,24:4
11,30:4
11,41:6
11,57:10
11,58:10
11,59:10
11,68:10
11,69:3
11,70:3
12,8:1
12,12:1
12,17:1
12,18:1
12,19:1
12,57:4
12,58:4
12,59:4
12,68:4
13,1:2
13,2:2
13,3:2
13,4:2
13,5:2
13,8:4
13,9:2
13,12:4
13,13:1
13,14:1
13,15:2
13,17:4
13,18:4
13,19:4
13,20:1
13,21:1
13,22:1
13,24:1
13,30:1
13,41:3
13,57:7
13,58:7
13,59:7
13,68:7
14,1:2
14,2:2
14,3:2
14,4:2
14,5:2
14,8:4
14,9:2
14,12:4
14,13:1
14,14:1
14,15:2
14,17:4
14,18:4
14,19:4
14,20:1
14,21:1
14,22:1
14,24:1
14,30:1
14,41:3
14,57:7
14,58:7
14,59:7
14,68:7
15,1:1
15,2:1
15,3:1
15,4:1
15,5:1
15,8:3
15,9:1
15,12:3
15,15:1
15,41:2
15,68:6
16,1:5
16,2:5
16,3:5
16,4:5
16,5:5
16,6:1
16,7:1
16,8:7
16,9:5
16,10:1
16,11:1
16,12:7
16,13:4
16,14:4
16,15:5
16,16:1
16,24:4
16,30:4
16,41:6
16,68:10
16,69:3
16,70:3
17,8:1
17,12:1
17,17:1
17,18:1
17,68:4
18,8:1
18,12:1
18,17:1
18,18:1
18,68:4
19,8:1
19,12:1
19,17:1
19,18:1
19,19:1
19,68:4
20,1:2
20,2:2
20,3:2
20,4:2
20,5:2
20,8:4
20,9:2
20,12:4
20,13:1
20,14:1
20,15:2
20,17:4
20,18:4
20,19:4
20,20:1
20,22:1
20,24:1
20,30:1
20,41:3
20,57:7
20,58:7
20,59:7
20,68:7
21,1:2
21,2:2
21,3:2
21,4:2
21,5:2
21,8:4
21,9:2
21,12:4
21,13:1
21,14:1
21,15:2
21,17:4
21,18:4
21,19:4
21,20:1
21,21:1
21,22:1
21,24:1
21,30:1
21,41:3
21,57:7
21,58:7
21,59:7
21,68:7
22,1:2
22,2:2
22,3:2
22,4:2
22,5:2
22,8:4
22,9:2
22,12:4
22,13:1
22,14:1
22,15:2
22,17:4
22,18:4
22,19:4
22,20:1
22,21:1
22,22:1
22,24:1
22,30:1
22,41:3
22,57:7
22,58:7
22,59:7
22,68:7
23,1:2
23,2:2
23,3:2
23,4:2
23,5:2
23,8:4
23,9:2
23,12:4
23,13:1
23,14:1
23,15:2
23,17:4
23,18:4
23,19:4
23,20:1
23,21:1
23,22:1
23,23:1
23,24:1
23,30:1
23,41:3
23,57:7
23,58:7
23,59:7
23,68:7
24,1:2
24,2:2
24,3:2
24,4:2
24,5:2
24,8:4
24,9:2
24,12:4
24,13:1
24,14:1
24,15:2
24,17:4
24,18:4
24,19:4
24,20:1
24,21:1
24,22:1
24,23:1
24,24:1
24,30:1
24,31:1
24,32:5
24,33:5
24,34:5
24,41:3
24,57:7
24,58:7
24,59:7
24,68:7
25,1:2
25,2:2
25,3:2
25,4:2
25,5:2
25,8:4
25,9:2
25,12:4
25,13:1
25,14:1
25,15:2
25,17:4
25,18:4
25,19:4
25,20:1
25,21:1
25,22:1
25,23:1
25,24:1
25,25:1
25,30:1
25,31:1
25,32:5
25,33:5
25,34:5
25,41:3
25,57:7
25,58:7
25,59:7
25,68:7
26,26:1
26,27:1
26,28:1
26,32:1
26,33:1
26,34:1
26,57:3
26,58:3
26,59:3
26,68:3
27,26:1
27,27:1
27,28:1
27,32:1
27,33:1
27,34:1
27,57:3
27,58:3
27,59:3
27,68:3
28,26:1
28,27:1
28,28:1
28,32:1
28,33:1
28,34:1
28,57:3
28,58:3
28,59:3
28,68:3
29,1:2
29,2:2
29,3:2
29,4:2
29,5:2
29,8:4
29,9:2
29,12:4
29,13:1
29,14:1
29,15:2
29,17:4
29,18:4
29,19:4
29,20:1
29,21:1
29,22:1
29,23:1
29,24:1
29,25:1
29,26:5
29,27:5
29,28:5
29,29:1
29,30:1
29,31:1
29,32:5
29,33:5
29,34:5
29,41:3
29,57:7
29,58:7
29,59:7
29,68:7
30,1:2
30,2:2
30,3:2
30,4:2
30,5:2
30,8:4
30,9:2
30,12:4
30,13:1
30,14:1
30,15:2
30,17:4
30,18:4
30,19:4
30,20:1
30,21:1
30,22:1
30,23:1
30,24:1
30,25:1
30,26:5
30,27:5
30,28:5
30,29:1
30,30:1
30,33:5
30,34:5
30,41:3
30,57:7
30,58:7
30,59:7
30,68:7
31,1:2
31,2:2
31,3:2
31,4:2
31,5:2
31,8:4
31,9:2
31,12:4
31,13:1
31,14:1
31,15:2
31,17:4
31,18:4
31,19:4
31,20:1
31,21:1
31,22:1
31,23:1
31,24:1
31,25:1
31,26:5
31,27:5
31,28:5
31,29:1
31,30:1
31,31:1
31,33:5
31,34:5
31,41:3
31,57:7
31,58:7
31,59:7
31,68:7
32,26:1
32,27:1
32,28:1
32,32:1
32,33:1
32,34:1
32,57:3
32,58:3
32,59:3
32,68:3
33,26:1
33,27:1
33,28:1
33,32:1
33,33:1
33,57:3
33,58:3
33,59:3
33,68:3
34,26:1
34,27:1
34,28:1
34,32:1
34,33:1
34,34:1
34,57:3
34,58:3
34,59:3
34,68:3
35,8:2
35,12:2
35,17:2
35,18:2
35,19:2
35,26:3
35,27:3
35,28:3
35,32:3
35,33:3
35,34:3
35,35:1
35,41:1
35,57:5
35,58:5
35,59:5
35,68:5
36,36:1
36,46:1
36,56:1
36,57:1
36,58:1
36,59:1
36,64:1
36,68:1
37,36:1
37,37:1
37,46:1
37,56:1
37,57:1
37,58:1
37,59:1
37,64:1
37,68:1
38,36:1
38,37:1
38,38:1
38,46:1
38,56:1
38,57:1
38,58:1
38,59:1
38,64:1
38,68:1
39,36:1
39,37:1
39,38:1
39,39:1
39,46:1
39,56:1
39,57:1
39,58:1
39,59:1
39,64:1
39,68:1
40,36:1
40,37:1
40,38:1
40,39:1
40,40:1
40,46:1
40,56:1
40,57:1
40,58:1
40,59:1
40,64:1
40,68:1
41,8:2
41,12:2
41,17:2
41,18:2
41,19:2
41,26:3
41,27:3
41,28:3
41,32:3
41,33:3
41,34:3
41,35:1
41,36:5
41,37:5
41,38:5
41,39:5
41,40:5
41,41:1
41,44:1
41,45:1
41,46:5
41,47:2
41,49:2
41,51:1
41,53:1
41,54:2
41,55:2
41,56:5
41,57:5
41,58:5
41,59:5
41,62:1
41,63:1
41,64:5
41,68:5
42,1:3
42,2:3
42,3:3
42,4:3
42,5:3
42,8:5
42,9:3
42,12:5
42,13:2
42,14:2
42,15:3
42,17:5
42,18:5
42,19:5
42,20:2
42,21:2
42,22:2
42,23:2
42,24:2
42,25:2
42,26:6
42,27:6
42,28:6
42,29:2
42,30:2
42,31:2
42,32:6
42,33:6
42,34:6
42,35:4
42,36:8
42,37:8
42,38:8
42,39:8
42,40:8
42,41:4
42,42:1
42,44:4
42,45:4
42,46:8
42,47:5
42,48:1
42,49:5
42,51:4
42,52:1
42,53:4
42,54:5
42,55:5
42,56:8
42,57:8
42,58:8
42,59:8
42,60:1
42,61:1
42,62:4
42,63:4
42,64:8
42,65:1
42,66:1
42,67:1
42,68:8
42,69:1
42,70:1
43,1:3
43,2:3
43,3:3
43,4:3
43,5:3
43,8:5
43,9:3
43,12:5
43,13:2
43,14:2
43,15:3
43,17:5
43,18:5
43,19:5
43,20:2
43,21:2
43,22:2
43,23:2
43,24:2
43,25:2
43,26:6
43,27:6
43,28:6
43,29:2
43,30:2
43,31:2
43,32:6
43,33:6
43,34:6
43,35:4
43,36:8
43,37:8
43,38:8
43,39:8
43,40:8
43,41:4
43,42:1
43,43:1
43,44:4
43,45:4
43,46:8
43,47:5
43,48:1
43,49:5
43,51:4
43,52:1
43,53:4
43,54:5
43,55:5
43,56:8
43,57:8
43,58:8
43,59:8
43,60:1
43,61:1
43,62:4
43,63:4
43,64:8
43,65:1
43,66:1
43,67:1
43,68:8
43,69:1
43,70:1
44,8:2
44,12:2
44,17:2
44,18:2
44,19:2
44,26:3
44,27:3
44,28:3
44,32:3
44,33:3
44,34:3
44,35:1
44,36:5
44,37:5
44,38:5
44,39:5
44,40:5
44,41:1
44,44:1
44,49:2
44,51:1
44,53:1
44,54:2
44,55:2
44,56:5
44,57:5
44,58:5
44,59:5
44,62:1
44,63:1
44,64:5
44,68:5
45,8:2
45,12:2
45,17:2
45,18:2
45,19:2
45,26:3
45,27:3
45,28:3
45,32:3
45,33:3
45,34:3
45,35:1
45,36:5
45,37:5
45,38:5
45,39:5
45,40:5
45,41:1
45,44:1
45,45:1
45,49:2
45,51:1
45,53:1
45,54:2
45,55:2
45,56:5
45,57:5
45,58:5
45,59:5
45,62:1
45,63:1
45,64:5
45,68:5
46,36:1
46,37:1
46,38:1
46,39:1
46,40:1
46,46:1
46,56:1
46,57:1
46,58:1
46,59:1
46,64:1
46,68:1
47,8:1
47,12:1
47,17:1
47,18:1
47,19:1
47,26:2
47,27:2
47,28:2
47,32:2
47,33:2
47,34:2
47,36:4
47,37:4
47,38:4
47,39:4
47,40:4
47,46:4
47,47:1
47,49:1
47,54:1
47,55:1
47,56:4
47,57:4
47,58:4
47,59:4
47,64:4
47,68:4
48,1:3
48,2:3
48,3:3
48,4:3
48,5:3
48,8:5
48,9:3
48,12:5
48,13:2
48,14:2
48,15:3
48,17:5
48,18:5
48,19:5
48,20:2
48,21:2
48,22:2
48,23:2
48,24:2
48,25:2
48,26:6
48,27:6
48,28:6
48,29:2
48,30:2
48,31:2
48,32:6
48,33:6
48,34:6
48,35:4
48,36:8
48,37:8
48,38:8
48,39:8
48,40:8
48,41:4
48,42:1
48,43:1
48,44:4
48,45:4
48,46:8
48,47:5
48,48:1
48,51:4
48,52:1
48,53:4
48,54:5
48,55:5
48,56:8
48,57:8
48,58:8
48,59:8
48,60:1
48,61:1
48,62:4
48,63:4
48,64:8
48,65:1
48,66:1
48,67:1
48,68:8
48,69:1
48,70:1
49,8:1
49,12:1
49,17:1
49,18:1
49,19:1
49,26:2
49,27:2
49,28:2
49,32:2
49,33:2
49,34:2
49,36:4
49,37:4
49,38:4
49,39:4
49,40:4
49,46:4
49,47:1
49,49:1
49,54:1
49,55:1
49,56:4
49,57:4
49,58:4
49,59:4
49,64:4
49,68:4
50,8:1
50,12:1
50,17:1
50,18:1
50,19:1
50,26:2
50,27:2
50,28:2
50,32:2
50,33:2
50,34:2
50,36:4
50,37:4
50,38:4
50,39:4
50,40:4
50,46:4
50,47:1
50,49:1
50,50:1
50,54:1
50,55:1
50,56:4
50,57:4
50,58:4
50,59:4
50,64:4
50,68:4
51,8:2
51,12:2
51,17:2
51,18:2
51,19:2
51,26:3
51,27:3
51,28:3
51,32:3
51,33:3
51,34:3
51,35:1
51,36:5
51,37:5
51,38:5
51,39:5
51,40:5
51,41:1
51,44:1
51,45:1
51,46:5
51,47:2
51,49:2
51,50:2
51,51:1
51,53:1
51,56:5
51,57:5
51,58:5
51,59:5
51,62:1
51,63:1
51,64:5
51,68:5
52,1:3
52,2:3
52,3:3
52,4:3
52,5:3
52,8:5
52,9:3
52,12:5
52,13:2
52,14:2
52,15:3
52,17:5
52,18:5
52,19:5
52,20:2
52,21:2
52,22:2
52,23:2
52,24:2
52,25:2
52,26:6
52,27:6
52,28:6
52,29:2
52,30:2
52,31:2
52,32:6
52,33:6
52,34:6
52,35:4
52,36:8
52,37:8
52,38:8
52,39:8
52,40:8
52,41:4
52,42:1
52,43:1
52,44:4
52,45:4
52,46:8
52,47:5
52,48:1
52,49:5
52,50:5
52,51:4
52,52:1
52,53:4
52,56:8
52,57:8
52,58:8
52,59:8
52,60:1
52,61:1
52,62:4
52,63:4
52,64:8
52,65:1
52,66:1
52,67:1
52,68:8
52,69:1
52,70:1
53,8:2
53,12:2
53,17:2
53,18:2
53,19:2
53,26:3
53,27:3
53,28:3
53,32:3
53,33:3
53,34:3
53,35:1
53,36:5
53,37:5
53,38:5
53,39:5
53,40:5
53,41:1
53,44:1
53,45:1
53,46:5
53,47:2
53,49:2
53,50:2
53,51:1
53,53:1
53,56:5
53,57:5
53,58:5
53,59:5
53,62:1
53,63:1
53,64:5
53,68:5
54,8:1
54,12:1
54,17:1
54,18:1
54,19:1
54,26:2
54,27:2
54,28:2
54,32:2
54,33:2
54,34:2
54,36:4
54,37:4
54,38:4
54,39:4
54,40:4
54,46:4
54,47:1
54,49:1
54,50:1
54,54:1
54,56:4
54,57:4
54,58:4
54,59:4
54,64:4
54,68:4
55,8:1
55,12:1
55,17:1
55,18:1
55,19:1
55,26:2
55,27:2
55,28:2
55,32:2
55,33:2
55,34:2
55,36:4
55,37:4
55,38:4
55,39:4
55,40:4
55,46:4
55,47:1
55,49:1
55,50:1
55,54:1
55,55:1
55,56:4
55,57:4
55,58:4
55,59:4
55,64:4
55,68:4
56,36:1
56,37:1
56,38:1
56,39:1
56,40:1
56,46:1
56,56:1
56,57:1
56,58:1
56,59:1
56,64:1
56,68:1
57,36:1
57,37:1
57,38:1
57,39:1
57,40:1
57,46:1
57,56:1
57,57:1
57,64:1
57,68:1
58,36:1
58,37:1
58,38:1
58,39:1
58,40:1
58,46:1
58,56:1
58,57:1
58,58:1
58,64:1
58,68:1
59,36:1
59,37:1
59,38:1
59,39:1
59,40:1
59,46:1
59,56:1
59,57:1
59,58:1
59,59:1
59,64:1
59,68:1
60,1:3
60,2:3
60,3:3
60,4:3
60,5:3
60,8:5
60,9:3
60,12:5
60,13:2
60,14:2
60,15:3
60,17:5
60,18:5
60,19:5
60,20:2
60,21:2
60,22:2
60,23:2
60,24:2
60,25:2
60,26:6
60,27:6
60,28:6
60,29:2
60,30:2
60,31:2
60,32:6
60,33:6
60,34:6
60,35:4
60,36:8
60,37:8
60,38:8
60,39:8
60,40:8
60,41:4
60,42:1
60,43:1
60,44:4
60,45:4
60,46:8
60,47:5
60,48:1
60,49:5
60,50:5
60,51:4
60,52:1
60,53:4
60,54:5
60,55:5
60,56:8
60,57:8
60,58:8
60,59:8
60,60:1
60,61:1
60,62:4
60,63:4
60,64:8
60,65:1
60,66:1
60,67:1
60,68:8
60,69:1
60,70:1
61,1:3
61,2:3
61,3:3
61,4:3
61,5:3
61,8:5
61,9:3
61,12:5
61,13:2
61,14:2
61,15:3
61,17:5
61,18:5
61,19:5
61,20:2
61,21:2
61,22:2
61,23:2
61,24:2
61,25:2
61,26:6
61,27:6
61,28:6
61,29:2
61,30:2
61,31:2
61,32:6
61,33:6
61,34:6
61,35:4
61,36:8
61,37:8
61,38:8
61,39:8
61,40:8
61,41:4
61,42:1
61,43:1
61,44:4
61,45:4
61,46:8
61,47:5
61,48:1
61,49:5
61,50:5
61,51:4
61,52:1
61,53:4
61,54:5
61,55:5
61,56:8
61,57:8
61,58:8
61,59:8
61,60:1
61,61:1
61,62:4
61,63:4
61,64:8
61,66:1
61,67:1
61,68:8
61,69:1
61,70:1
62,8:2
62,12:2
62,17:2
62,18:2
62,19:2
62,26:3
62,27:3
62,28:3
62,32:3
62,33:3
62,34:3
62,35:1
62,36:5
62,37:5
62,38:5
62,39:5
62,40:5
62,41:1
62,44:1
62,45:1
62,46:5
62,47:2
62,49:2
62,50:2
62,51:1
62,53:1
62,54:2
62,55:2
62,56:5
62,57:5
62,58:5
62,59:5
62,62:1
62,68:5
63,8:2
63,12:2
63,17:2
63,18:2
63,19:2
63,26:3
63,27:3
63,28:3
63,32:3
63,33:3
63,34:3
63,35:1
63,36:5
63,37:5
63,38:5
63,39:5
63,40:5
63,41:1
63,44:1
63,45:1
63,46:5
63,47:2
63,49:2
63,50:2
63,51:1
63,53:1
63,54:2
63,55:2
63,56:5
63,57:5
63,58:5
63,59:5
63,62:1
63,63:1
63,68:5
64,36:1
64,37:1
64,38:1
64,39:1
64,40:1
64,46:1
64,56:1
64,57:1
64,58:1
64,59:1
64,64:1
64,68:1
65,1:3
65,2:3
65,3:3
65,4:3
65,5:3
65,8:5
65,9:3
65,12:5
65,13:2
65,14:2
65,15:3
65,17:5
65,18:5
65,19:5
65,20:2
65,21:2
65,22:2
65,23:2
65,24:2
65,25:2
65,26:6
65,27:6
65,28:6
65,29:2
65,30:2
65,31:2
65,32:6
65,33:6
65,34:6
65,35:4
65,36:8
65,37:8
65,38:8
65,39:8
65,40:8
65,41:4
65,42:1
65,43:1
65,44:4
65,45:4
65,46:8
65,47:5
65,48:1
65,49:5
65,50:5
65,51:4
65,52:1
65,53:4
65,54:5
65,55:5
65,56:8
65,57:8
65,58:8
65,59:8
65,60:1
65,61:1
65,62:4
65,63:4
65,64:8
65,65:1
65,66:1
65,67:1
65,68:8
65,69:1
65,70:1
66,1:3
66,2:3
66,3:3
66,4:3
66,5:3
66,8:5
66,9:3
66,12:5
66,13:2
66,14:2
66,15:3
66,17:5
66,18:5
66,19:5
66,20:2
66,21:2
66,22:2
66,23:2
66,24:2
66,25:2
66,26:6
66,27:6
66,28:6
66,29:2
66,30:2
66,31:2
66,32:6
66,33:6
66,34:6
66,35:4
66,36:8
66,37:8
66,38:8
66,39:8
66,40:8
66,41:4
66,42:1
66,43:1
66,44:4
66,45:4
66,46:8
66,47:5
66,48:1
66,49:5
66,50:5
66,51:4
66,52:1
66,53:4
66,54:5
66,55:5
66,56:8
66,57:8
66,58:8
66,59:8
66,60:1
66,61:1
66,62:4
66,63:4
66,64:8
66,65:1
66,66:1
66,67:1
66,68:8
66,69:1
66,70:1
67,1:3
67,2:3
67,3:3
67,4:3
67,5:3
67,8:5
67,9:3
67,12:5
67,13:2
67,14:2
67,15:3
67,17:5
67,18:5
67,19:5
67,20:2
67,21:2
67,22:2
67,23:2
67,24:2
67,25:2
67,26:6
67,27:6
67,28:6
67,29:2
67,30:2
67,31:2
67,32:6
67,33:6
67,34:6
67,35:4
67,36:8
67,37:8
67,38:8
67,39:8
67,40:8
67,41:4
67,42:1
67,43:1
67,44:4
67,45:4
67,46:8
67,47:5
67,48:1
67,49:5
67,50:5
67,51:4
67,52:1
67,53:4
67,54:5
67,55:5
67,56:8
67,57:8
67,58:8
67,59:8
67,60:1
67,61:1
67,62:4
67,63:4
67,64:8
67,65:1
67,66:1
67,67:1
67,68:8
67,69:1
67,70:1
68,36:1
68,37:1
68,38:1
68,39:1
68,40:1
68,46:1
68,56:1
68,57:1
68,58:1
68,59:1
68,64:1
68,68:1
69,1:3
69,2:3
69,3:3
69,4:3
69,5:3
69,8:5
69,9:3
69,12:5
69,13:2
69,14:2
69,15:3
69,17:5
69,18:5
69,19:5
69,20:2
69,21:2
69,22:2
69,23:2
69,24:2
69,25:2
69,26:6
69,27:6
69,28:6
69,29:2
69,30:2
69,31:2
69,32:6
69,33:6
69,34:6
69,35:4
69,36:8
69,37:8
69,38:8
69,39:8
69,40:8
69,41:4
69,42:1
69,43:1
69,44:4
69,45:4
69,46:8
69,47:5
69,48:1
69,49:5
69,50:5
69,51:4
69,52:1
69,53:4
69,54:5
69,55:5
69,56:8
69,57:8
69,58:8
69,59:8
69,60:1
69,61:1
69,62:4
69,63:4
69,64:8
69,65:1
69,66:1
69,67:1
69,68:8
69,69:1
69,70:1
70,1:3
70,2:3
70,3:3
70,4:3
70,5:3
70,8:5
70,9:3
70,12:5
70,13:2
70,14:2
70,15:3
70,17:5
70,18:5
70,19:5
70,20:2
70,21:2
70,22:2
70,23:2
70,24:2
70,25:2
70,26:6
70,27:6
70,28:6
70,29:2
70,30:2
70,31:2
70,32:6
70,33:6
70,34:6
70,35:4
70,36:8
70,37:8
70,38:8
70,39:8
70,40:8
70,41:4
70,42:1
70,43:1
70,44:4
70,45:4
70,46:8
70,47:5
70,48:1
70,49:5
70,50:5
70,51:4
70,52:1
70,53:4
70,54:5
70,55:5
70,56:8
70,57:8
70,58:8
70,59:8
70,60:1
70,61:1
70,62:4
70,63:4
70,64:8
70,65:1
70,66:1
70,67:1
70,68:8
70,69:1
70,70:1

<end>

<optimal SALBP-1 value>
10


<rand seed>
467321153

